
  32    4
  10   10   10   10

   0   0   0   0   0   4 2 29 30 31 
   6   1   0   1   2   1 3 
   4   4   1   5   0   1 4 
   4   5   4   2   0   1 5 
  10   3   3   0   4   2 28 6 
  10   4   0   4   3   1 7 
   8   5   5   0   6   1 8 
   8   0   4   5   6   3 27 26 9 
   6   0   4   3   2   1 10 
   8   4   0   4   5   1 11 
  10   0   3   5   3   1 12 
   6   0   6   3   5   1 13 
   8   0   5   8   2   1 14 
   9   4   4   2   0   1 15 
   2   0   4   1   1   1 16 
   1   3   0   6   4   1 17 
   6   3   0   7   4   1 18 
   6   0   4   4   3   1 19 
   1   6   0   4   5   1 20 
   2   6   3   0   3   1 21 
   5   0   4   2   3   1 22 
   8   0   5   3   4   1 23 
   6   0   4   1   8   1 24 
   8   0   6   5   3   1 25 
   4   1   4   0   5   1 32
   3   4   0   2   2   1 32
   3   5   3   0   4   1 32
   8   5   3   8   0   1 32
  10   5   2   0   2   1 32
   2   0   4   4  10   1 32
   5   0   7   7   5   1 32
   0   0   0   0   0   0 
